WARNING: for repeatability, setting FPU to use double precision
============================[ Problem Statistics ]=============================
|                                                                             |
|  Number of variables:            50                                         |
|  Number of clauses:             218                                         |
|  Parse time:                   0.00 s                                       |
|                                                                             |
============================[ Search Statistics ]==============================
| Conflicts |          ORIGINAL         |          LEARNT          | Progress |
|           |    Vars  Clauses Literals |    Limit  Clauses Lit/Cl |          |
===============================================================================
===============================================================================
restarts              : 1
conflicts             : 31             (22001 /sec)
decisions             : 51             (0.00 % random) (36196 /sec)
propagations          : 423            (300213 /sec)
conflict literals     : 194            (6.73 % deleted)
Memory used           : 20.00 MB
CPU time              : 0.001409 s

SATISFIABLE
